NAME : kroC100-C-5-1-a__bsl__26821.tour
COMMENT : Length = 26821.000
COMMENT : Generated by compare_sota_instances.py for bsl
TYPE : TOUR
DIMENSION : 100
TOUR_SECTION
44
1
53
46
29
37
10
92
66
61
24
32
26
7
82
78
9
16
51
48
84
11
52
87
96
81
45
97
33
100
74
57
36
14
69
3
73
59
41
89
21
70
76
94
91
95
23
30
68
77
2
35
50
86
43
5
56
71
38
72
62
83
39
28
88
98
58
34
90
25
17
8
22
75
54
6
80
65
31
47
67
55
42
64
20
79
13
15
27
85
40
12
49
18
93
4
60
99
19
63
-1
EOF
